VALUE 2300407
1 230
8 68
9 218
16 232
20 220
21 170
21 22
22 23
23 24
25 196
29 165
33 146
37 195
41 67
46 191
49 162
49 50
50 51
52 130
56 107
56 57
57 58
58 59
60 95
64 91
64 65
65 66
66 67
64 68
75 130
79 107
83 95
87 256
87 91
87 95
83 107
79 130
59 138
138 139
139 144
144 145
146 165
146 150
145 154
154 155
75 159
159 162
155 165
150 168
168 170
29 178
191 198
51 195
178 196
195 198
24 218
218 220
20 230
230 232
1 235
8 236
9 237
16 238
20 239
21 240
25 241
29 242
33 243
37 244
41 245
46 246
49 247
52 248
58 249
60 250
64 251
68 252
75 253
79 254
83 255
91 257

